p cnf 258 1201
1 0
-2 0
-3 0
-4 0
-5 0
31 6 0
-31 -6 0
7 0
-6 0
-8 0
-9 0
-10 0
2 12 37 0
-2 -12 0
-2 -37 0
-12 -37 0
-11 -181 0
-11 -182 0
-11 -183 0
-12 181 0
-12 -182 0
-12 -183 0
-13 -181 0
-13 182 0
-13 -183 0
-14 181 0
-14 182 0
-14 -183 0
-15 -181 0
-15 -182 0
-15 183 0
-11 6 16 0
-11 6 41 0
-11 16 41 0
-12 7 17 0
-12 7 42 0
-12 17 42 0
-13 8 18 0
-13 8 43 0
-13 18 43 0
-14 9 19 0
-14 9 44 0
-14 19 44 0
-15 10 20 0
-15 10 45 0
-15 20 45 0
-11 -6 -16 -41 0
-12 -7 -17 -42 0
-13 -8 -18 -43 0
-14 -9 -19 -44 0
-15 -10 -20 -45 0
-16 -184 0
-16 -185 0
-16 -186 0
-17 184 0
-17 -185 0
-17 -186 0
-18 -184 0
-18 185 0
-18 -186 0
-19 184 0
-19 185 0
-19 -186 0
-20 -184 0
-20 -185 0
-20 186 0
-16 11 21 0
-16 11 46 0
-16 21 46 0
-17 12 22 0
-17 12 47 0
-17 22 47 0
-18 13 23 0
-18 13 48 0
-18 23 48 0
-19 14 24 0
-19 14 49 0
-19 24 49 0
-20 15 25 0
-20 15 50 0
-20 25 50 0
-16 -11 -21 -46 0
-17 -12 -22 -47 0
-18 -13 -23 -48 0
-19 -14 -24 -49 0
-20 -15 -25 -50 0
-21 -187 0
-21 -188 0
-21 -189 0
-22 187 0
-22 -188 0
-22 -189 0
-23 -187 0
-23 188 0
-23 -189 0
-24 187 0
-24 188 0
-24 -189 0
-25 -187 0
-25 -188 0
-25 189 0
-21 16 26 0
-21 16 51 0
-21 26 51 0
-22 17 27 0
-22 17 52 0
-22 27 52 0
-23 18 28 0
-23 18 53 0
-23 28 53 0
-24 19 29 0
-24 19 54 0
-24 29 54 0
-25 20 30 0
-25 20 55 0
-25 30 55 0
-21 -16 -26 -51 0
-22 -17 -27 -52 0
-23 -18 -28 -53 0
-24 -19 -29 -54 0
-25 -20 -30 -55 0
-26 -190 0
-26 -191 0
-26 -192 0
-27 190 0
-27 -191 0
-27 -192 0
-28 -190 0
-28 191 0
-28 -192 0
-29 190 0
-29 191 0
-29 -192 0
-30 -190 0
-30 -191 0
-30 192 0
-26 56 0
-26 21 0
-27 57 0
-27 22 0
-28 58 0
-28 23 0
-29 59 0
-29 24 0
-30 60 0
-30 25 0
-31 -193 0
-31 -194 0
-31 -195 0
-32 193 0
-32 -194 0
-32 -195 0
-33 -193 0
-33 194 0
-33 -195 0
-34 193 0
-34 194 0
-34 -195 0
-35 -193 0
-35 -194 0
-35 195 0
-31 61 36 0
-31 61 1 0
-31 36 1 0
-32 62 37 0
-32 62 2 0
-32 37 2 0
-33 63 38 0
-33 63 3 0
-33 38 3 0
-34 64 39 0
-34 64 4 0
-34 39 4 0
-35 65 40 0
-35 65 5 0
-35 40 5 0
-31 -61 -36 -1 0
-32 -62 -37 -2 0
-33 -63 -38 -3 0
-34 -64 -39 -4 0
-35 -65 -40 -5 0
-36 -196 0
-36 -197 0
-36 -198 0
-37 196 0
-37 -197 0
-37 -198 0
-38 -196 0
-38 197 0
-38 -198 0
-39 196 0
-39 197 0
-39 -198 0
-40 -196 0
-40 -197 0
-40 198 0
-36 66 41 6 0
-36 66 41 31 0
-36 66 6 31 0
-36 41 6 31 0
-37 67 42 7 0
-37 67 42 32 0
-37 67 7 32 0
-37 42 7 32 0
-38 68 43 8 0
-38 68 43 33 0
-38 68 8 33 0
-38 43 8 33 0
-39 69 44 9 0
-39 69 44 34 0
-39 69 9 34 0
-39 44 9 34 0
-40 70 45 10 0
-40 70 45 35 0
-40 70 10 35 0
-40 45 10 35 0
-36 -66 -41 -6 0
-36 -66 -41 -31 0
-36 -66 -6 -31 0
-36 -41 -6 -31 0
-37 -67 -42 -7 0
-37 -67 -42 -32 0
-37 -67 -7 -32 0
-37 -42 -7 -32 0
-38 -68 -43 -8 0
-38 -68 -43 -33 0
-38 -68 -8 -33 0
-38 -43 -8 -33 0
-39 -69 -44 -9 0
-39 -69 -44 -34 0
-39 -69 -9 -34 0
-39 -44 -9 -34 0
-40 -70 -45 -10 0
-40 -70 -45 -35 0
-40 -70 -10 -35 0
-40 -45 -10 -35 0
-41 -199 0
-41 -200 0
-41 -201 0
-42 199 0
-42 -200 0
-42 -201 0
-43 -199 0
-43 200 0
-43 -201 0
-44 199 0
-44 200 0
-44 -201 0
-45 -199 0
-45 -200 0
-45 201 0
-41 71 46 11 0
-41 71 46 36 0
-41 71 11 36 0
-41 46 11 36 0
-42 72 47 12 0
-42 72 47 37 0
-42 72 12 37 0
-42 47 12 37 0
-43 73 48 13 0
-43 73 48 38 0
-43 73 13 38 0
-43 48 13 38 0
-44 74 49 14 0
-44 74 49 39 0
-44 74 14 39 0
-44 49 14 39 0
-45 75 50 15 0
-45 75 50 40 0
-45 75 15 40 0
-45 50 15 40 0
-41 -71 -46 -11 0
-41 -71 -46 -36 0
-41 -71 -11 -36 0
-41 -46 -11 -36 0
-42 -72 -47 -12 0
-42 -72 -47 -37 0
-42 -72 -12 -37 0
-42 -47 -12 -37 0
-43 -73 -48 -13 0
-43 -73 -48 -38 0
-43 -73 -13 -38 0
-43 -48 -13 -38 0
-44 -74 -49 -14 0
-44 -74 -49 -39 0
-44 -74 -14 -39 0
-44 -49 -14 -39 0
-45 -75 -50 -15 0
-45 -75 -50 -40 0
-45 -75 -15 -40 0
-45 -50 -15 -40 0
-46 -202 0
-46 -203 0
-46 -204 0
-47 202 0
-47 -203 0
-47 -204 0
-48 -202 0
-48 203 0
-48 -204 0
-49 202 0
-49 203 0
-49 -204 0
-50 -202 0
-50 -203 0
-50 204 0
-46 76 51 16 0
-46 76 51 41 0
-46 76 16 41 0
-46 51 16 41 0
-47 77 52 17 0
-47 77 52 42 0
-47 77 17 42 0
-47 52 17 42 0
-48 78 53 18 0
-48 78 53 43 0
-48 78 18 43 0
-48 53 18 43 0
-49 79 54 19 0
-49 79 54 44 0
-49 79 19 44 0
-49 54 19 44 0
-50 80 55 20 0
-50 80 55 45 0
-50 80 20 45 0
-50 55 20 45 0
-46 -76 -51 -16 0
-46 -76 -51 -41 0
-46 -76 -16 -41 0
-46 -51 -16 -41 0
-47 -77 -52 -17 0
-47 -77 -52 -42 0
-47 -77 -17 -42 0
-47 -52 -17 -42 0
-48 -78 -53 -18 0
-48 -78 -53 -43 0
-48 -78 -18 -43 0
-48 -53 -18 -43 0
-49 -79 -54 -19 0
-49 -79 -54 -44 0
-49 -79 -19 -44 0
-49 -54 -19 -44 0
-50 -80 -55 -20 0
-50 -80 -55 -45 0
-50 -80 -20 -45 0
-50 -55 -20 -45 0
53 0
-51 0
-52 0
-54 0
-55 0
83 58 23 48 0
-83 -58 0
-83 -23 0
-83 -48 0
-58 -23 0
-58 -48 0
-23 -48 0
-56 -205 0
-56 -206 0
-56 -207 0
-57 205 0
-57 -206 0
-57 -207 0
-58 -205 0
-58 206 0
-58 -207 0
-59 205 0
-59 206 0
-59 -207 0
-60 -205 0
-60 -206 0
-60 207 0
-56 86 51 0
-56 86 26 0
-56 51 26 0
-57 87 52 0
-57 87 27 0
-57 52 27 0
-58 88 53 0
-58 88 28 0
-58 53 28 0
-59 89 54 0
-59 89 29 0
-59 54 29 0
-60 90 55 0
-60 90 30 0
-60 55 30 0
-56 -86 -51 -26 0
-57 -87 -52 -27 0
-58 -88 -53 -28 0
-59 -89 -54 -29 0
-60 -90 -55 -30 0
-61 -208 0
-61 -209 0
-61 -210 0
-62 208 0
-62 -209 0
-62 -210 0
-63 -208 0
-63 209 0
-63 -210 0
-64 208 0
-64 209 0
-64 -210 0
-65 -208 0
-65 -209 0
-65 210 0
-61 91 66 0
-61 91 31 0
-61 66 31 0
-62 92 67 0
-62 92 32 0
-62 67 32 0
-63 93 68 0
-63 93 33 0
-63 68 33 0
-64 94 69 0
-64 94 34 0
-64 69 34 0
-65 95 70 0
-65 95 35 0
-65 70 35 0
-61 -91 -66 -31 0
-62 -92 -67 -32 0
-63 -93 -68 -33 0
-64 -94 -69 -34 0
-65 -95 -70 -35 0
-66 -211 0
-66 -212 0
-66 -213 0
-67 211 0
-67 -212 0
-67 -213 0
-68 -211 0
-68 212 0
-68 -213 0
-69 211 0
-69 212 0
-69 -213 0
-70 -211 0
-70 -212 0
-70 213 0
-66 96 71 36 0
-66 96 71 61 0
-66 96 36 61 0
-66 71 36 61 0
-67 97 72 37 0
-67 97 72 62 0
-67 97 37 62 0
-67 72 37 62 0
-68 98 73 38 0
-68 98 73 63 0
-68 98 38 63 0
-68 73 38 63 0
-69 99 74 39 0
-69 99 74 64 0
-69 99 39 64 0
-69 74 39 64 0
-70 100 75 40 0
-70 100 75 65 0
-70 100 40 65 0
-70 75 40 65 0
-66 -96 -71 -36 0
-66 -96 -71 -61 0
-66 -96 -36 -61 0
-66 -71 -36 -61 0
-67 -97 -72 -37 0
-67 -97 -72 -62 0
-67 -97 -37 -62 0
-67 -72 -37 -62 0
-68 -98 -73 -38 0
-68 -98 -73 -63 0
-68 -98 -38 -63 0
-68 -73 -38 -63 0
-69 -99 -74 -39 0
-69 -99 -74 -64 0
-69 -99 -39 -64 0
-69 -74 -39 -64 0
-70 -100 -75 -40 0
-70 -100 -75 -65 0
-70 -100 -40 -65 0
-70 -75 -40 -65 0
74 0
-71 0
-72 0
-73 0
-75 0
104 79 44 69 0
-104 -79 0
-104 -44 0
-104 -69 0
-79 -44 0
-79 -69 0
-44 -69 0
-76 -214 0
-76 -215 0
-76 -216 0
-77 214 0
-77 -215 0
-77 -216 0
-78 -214 0
-78 215 0
-78 -216 0
-79 214 0
-79 215 0
-79 -216 0
-80 -214 0
-80 -215 0
-80 216 0
-76 106 81 46 0
-76 106 81 71 0
-76 106 46 71 0
-76 81 46 71 0
-77 107 82 47 0
-77 107 82 72 0
-77 107 47 72 0
-77 82 47 72 0
-78 108 83 48 0
-78 108 83 73 0
-78 108 48 73 0
-78 83 48 73 0
-79 109 84 49 0
-79 109 84 74 0
-79 109 49 74 0
-79 84 49 74 0
-80 110 85 50 0
-80 110 85 75 0
-80 110 50 75 0
-80 85 50 75 0
-76 -106 -81 -46 0
-76 -106 -81 -71 0
-76 -106 -46 -71 0
-76 -81 -46 -71 0
-77 -107 -82 -47 0
-77 -107 -82 -72 0
-77 -107 -47 -72 0
-77 -82 -47 -72 0
-78 -108 -83 -48 0
-78 -108 -83 -73 0
-78 -108 -48 -73 0
-78 -83 -48 -73 0
-79 -109 -84 -49 0
-79 -109 -84 -74 0
-79 -109 -49 -74 0
-79 -84 -49 -74 0
-80 -110 -85 -50 0
-80 -110 -85 -75 0
-80 -110 -50 -75 0
-80 -85 -50 -75 0
-81 -217 0
-81 -218 0
-81 -219 0
-82 217 0
-82 -218 0
-82 -219 0
-83 -217 0
-83 218 0
-83 -219 0
-84 217 0
-84 218 0
-84 -219 0
-85 -217 0
-85 -218 0
-85 219 0
-81 111 86 51 0
-81 111 86 76 0
-81 111 51 76 0
-81 86 51 76 0
-82 112 87 52 0
-82 112 87 77 0
-82 112 52 77 0
-82 87 52 77 0
-83 113 88 53 0
-83 113 88 78 0
-83 113 53 78 0
-83 88 53 78 0
-84 114 89 54 0
-84 114 89 79 0
-84 114 54 79 0
-84 89 54 79 0
-85 115 90 55 0
-85 115 90 80 0
-85 115 55 80 0
-85 90 55 80 0
-81 -111 -86 -51 0
-81 -111 -86 -76 0
-81 -111 -51 -76 0
-81 -86 -51 -76 0
-82 -112 -87 -52 0
-82 -112 -87 -77 0
-82 -112 -52 -77 0
-82 -87 -52 -77 0
-83 -113 -88 -53 0
-83 -113 -88 -78 0
-83 -113 -53 -78 0
-83 -88 -53 -78 0
-84 -114 -89 -54 0
-84 -114 -89 -79 0
-84 -114 -54 -79 0
-84 -89 -54 -79 0
-85 -115 -90 -55 0
-85 -115 -90 -80 0
-85 -115 -55 -80 0
-85 -90 -55 -80 0
-86 -220 0
-86 -221 0
-86 -222 0
-87 220 0
-87 -221 0
-87 -222 0
-88 -220 0
-88 221 0
-88 -222 0
-89 220 0
-89 221 0
-89 -222 0
-90 -220 0
-90 -221 0
-90 222 0
-86 116 81 0
-86 116 56 0
-86 81 56 0
-87 117 82 0
-87 117 57 0
-87 82 57 0
-88 118 83 0
-88 118 58 0
-88 83 58 0
-89 119 84 0
-89 119 59 0
-89 84 59 0
-90 120 85 0
-90 120 60 0
-90 85 60 0
-86 -116 -81 -56 0
-87 -117 -82 -57 0
-88 -118 -83 -58 0
-89 -119 -84 -59 0
-90 -120 -85 -60 0
-91 -223 0
-91 -224 0
-91 -225 0
-92 223 0
-92 -224 0
-92 -225 0
-93 -223 0
-93 224 0
-93 -225 0
-94 223 0
-94 224 0
-94 -225 0
-95 -223 0
-95 -224 0
-95 225 0
-91 121 96 0
-91 121 61 0
-91 96 61 0
-92 122 97 0
-92 122 62 0
-92 97 62 0
-93 123 98 0
-93 123 63 0
-93 98 63 0
-94 124 99 0
-94 124 64 0
-94 99 64 0
-95 125 100 0
-95 125 65 0
-95 100 65 0
-91 -121 -96 -61 0
-92 -122 -97 -62 0
-93 -123 -98 -63 0
-94 -124 -99 -64 0
-95 -125 -100 -65 0
-96 -226 0
-96 -227 0
-96 -228 0
-97 226 0
-97 -227 0
-97 -228 0
-98 -226 0
-98 227 0
-98 -228 0
-99 226 0
-99 227 0
-99 -228 0
-100 -226 0
-100 -227 0
-100 228 0
-96 126 101 66 0
-96 126 101 91 0
-96 126 66 91 0
-96 101 66 91 0
-97 127 102 67 0
-97 127 102 92 0
-97 127 67 92 0
-97 102 67 92 0
-98 128 103 68 0
-98 128 103 93 0
-98 128 68 93 0
-98 103 68 93 0
-99 129 104 69 0
-99 129 104 94 0
-99 129 69 94 0
-99 104 69 94 0
-100 130 105 70 0
-100 130 105 95 0
-100 130 70 95 0
-100 105 70 95 0
-96 -126 -101 -66 0
-96 -126 -101 -91 0
-96 -126 -66 -91 0
-96 -101 -66 -91 0
-97 -127 -102 -67 0
-97 -127 -102 -92 0
-97 -127 -67 -92 0
-97 -102 -67 -92 0
-98 -128 -103 -68 0
-98 -128 -103 -93 0
-98 -128 -68 -93 0
-98 -103 -68 -93 0
-99 -129 -104 -69 0
-99 -129 -104 -94 0
-99 -129 -69 -94 0
-99 -104 -69 -94 0
-100 -130 -105 -70 0
-100 -130 -105 -95 0
-100 -130 -70 -95 0
-100 -105 -70 -95 0
105 0
-101 0
-102 0
-103 0
-104 0
135 110 75 100 0
-135 -110 0
-135 -75 0
-135 -100 0
-110 -75 0
-110 -100 0
-75 -100 0
-106 -229 0
-106 -230 0
-106 -231 0
-107 229 0
-107 -230 0
-107 -231 0
-108 -229 0
-108 230 0
-108 -231 0
-109 229 0
-109 230 0
-109 -231 0
-110 -229 0
-110 -230 0
-110 231 0
-106 136 111 76 0
-106 136 111 101 0
-106 136 76 101 0
-106 111 76 101 0
-107 137 112 77 0
-107 137 112 102 0
-107 137 77 102 0
-107 112 77 102 0
-108 138 113 78 0
-108 138 113 103 0
-108 138 78 103 0
-108 113 78 103 0
-109 139 114 79 0
-109 139 114 104 0
-109 139 79 104 0
-109 114 79 104 0
-110 140 115 80 0
-110 140 115 105 0
-110 140 80 105 0
-110 115 80 105 0
-106 -136 -111 -76 0
-106 -136 -111 -101 0
-106 -136 -76 -101 0
-106 -111 -76 -101 0
-107 -137 -112 -77 0
-107 -137 -112 -102 0
-107 -137 -77 -102 0
-107 -112 -77 -102 0
-108 -138 -113 -78 0
-108 -138 -113 -103 0
-108 -138 -78 -103 0
-108 -113 -78 -103 0
-109 -139 -114 -79 0
-109 -139 -114 -104 0
-109 -139 -79 -104 0
-109 -114 -79 -104 0
-110 -140 -115 -80 0
-110 -140 -115 -105 0
-110 -140 -80 -105 0
-110 -115 -80 -105 0
-111 -232 0
-111 -233 0
-111 -234 0
-112 232 0
-112 -233 0
-112 -234 0
-113 -232 0
-113 233 0
-113 -234 0
-114 232 0
-114 233 0
-114 -234 0
-115 -232 0
-115 -233 0
-115 234 0
-111 141 116 81 0
-111 141 116 106 0
-111 141 81 106 0
-111 116 81 106 0
-112 142 117 82 0
-112 142 117 107 0
-112 142 82 107 0
-112 117 82 107 0
-113 143 118 83 0
-113 143 118 108 0
-113 143 83 108 0
-113 118 83 108 0
-114 144 119 84 0
-114 144 119 109 0
-114 144 84 109 0
-114 119 84 109 0
-115 145 120 85 0
-115 145 120 110 0
-115 145 85 110 0
-115 120 85 110 0
-111 -141 -116 -81 0
-111 -141 -116 -106 0
-111 -141 -81 -106 0
-111 -116 -81 -106 0
-112 -142 -117 -82 0
-112 -142 -117 -107 0
-112 -142 -82 -107 0
-112 -117 -82 -107 0
-113 -143 -118 -83 0
-113 -143 -118 -108 0
-113 -143 -83 -108 0
-113 -118 -83 -108 0
-114 -144 -119 -84 0
-114 -144 -119 -109 0
-114 -144 -84 -109 0
-114 -119 -84 -109 0
-115 -145 -120 -85 0
-115 -145 -120 -110 0
-115 -145 -85 -110 0
-115 -120 -85 -110 0
-116 -235 0
-116 -236 0
-116 -237 0
-117 235 0
-117 -236 0
-117 -237 0
-118 -235 0
-118 236 0
-118 -237 0
-119 235 0
-119 236 0
-119 -237 0
-120 -235 0
-120 -236 0
-120 237 0
-116 146 111 0
-116 146 86 0
-116 111 86 0
-117 147 112 0
-117 147 87 0
-117 112 87 0
-118 148 113 0
-118 148 88 0
-118 113 88 0
-119 149 114 0
-119 149 89 0
-119 114 89 0
-120 150 115 0
-120 150 90 0
-120 115 90 0
-116 -146 -111 -86 0
-117 -147 -112 -87 0
-118 -148 -113 -88 0
-119 -149 -114 -89 0
-120 -150 -115 -90 0
-121 -238 0
-121 -239 0
-121 -240 0
-122 238 0
-122 -239 0
-122 -240 0
-123 -238 0
-123 239 0
-123 -240 0
-124 238 0
-124 239 0
-124 -240 0
-125 -238 0
-125 -239 0
-125 240 0
-121 151 126 0
-121 151 91 0
-121 126 91 0
-122 152 127 0
-122 152 92 0
-122 127 92 0
-123 153 128 0
-123 153 93 0
-123 128 93 0
-124 154 129 0
-124 154 94 0
-124 129 94 0
-125 155 130 0
-125 155 95 0
-125 130 95 0
-121 -151 -126 -91 0
-122 -152 -127 -92 0
-123 -153 -128 -93 0
-124 -154 -129 -94 0
-125 -155 -130 -95 0
-126 -241 0
-126 -242 0
-126 -243 0
-127 241 0
-127 -242 0
-127 -243 0
-128 -241 0
-128 242 0
-128 -243 0
-129 241 0
-129 242 0
-129 -243 0
-130 -241 0
-130 -242 0
-130 243 0
-126 156 131 96 0
-126 156 131 121 0
-126 156 96 121 0
-126 131 96 121 0
-127 157 132 97 0
-127 157 132 122 0
-127 157 97 122 0
-127 132 97 122 0
-128 158 133 98 0
-128 158 133 123 0
-128 158 98 123 0
-128 133 98 123 0
-129 159 134 99 0
-129 159 134 124 0
-129 159 99 124 0
-129 134 99 124 0
-130 160 135 100 0
-130 160 135 125 0
-130 160 100 125 0
-130 135 100 125 0
-126 -156 -131 -96 0
-126 -156 -131 -121 0
-126 -156 -96 -121 0
-126 -131 -96 -121 0
-127 -157 -132 -97 0
-127 -157 -132 -122 0
-127 -157 -97 -122 0
-127 -132 -97 -122 0
-128 -158 -133 -98 0
-128 -158 -133 -123 0
-128 -158 -98 -123 0
-128 -133 -98 -123 0
-129 -159 -134 -99 0
-129 -159 -134 -124 0
-129 -159 -99 -124 0
-129 -134 -99 -124 0
-130 -160 -135 -100 0
-130 -160 -135 -125 0
-130 -160 -100 -125 0
-130 -135 -100 -125 0
133 0
-131 0
-132 0
-134 0
-135 0
163 138 103 128 0
-163 -138 0
-163 -103 0
-163 -128 0
-138 -103 0
-138 -128 0
-103 -128 0
140 0
-136 0
-137 0
-138 0
-139 0
170 145 110 135 0
-170 -145 0
-170 -110 0
-170 -135 0
-145 -110 0
-145 -135 0
-110 -135 0
144 0
-141 0
-142 0
-143 0
-145 0
174 149 114 139 0
-174 -149 0
-174 -114 0
-174 -139 0
-149 -114 0
-149 -139 0
-114 -139 0
-146 -244 0
-146 -245 0
-146 -246 0
-147 244 0
-147 -245 0
-147 -246 0
-148 -244 0
-148 245 0
-148 -246 0
-149 244 0
-149 245 0
-149 -246 0
-150 -244 0
-150 -245 0
-150 246 0
-146 176 141 0
-146 176 116 0
-146 141 116 0
-147 177 142 0
-147 177 117 0
-147 142 117 0
-148 178 143 0
-148 178 118 0
-148 143 118 0
-149 179 144 0
-149 179 119 0
-149 144 119 0
-150 180 145 0
-150 180 120 0
-150 145 120 0
-146 -176 -141 -116 0
-147 -177 -142 -117 0
-148 -178 -143 -118 0
-149 -179 -144 -119 0
-150 -180 -145 -120 0
-151 -247 0
-151 -248 0
-151 -249 0
-152 247 0
-152 -248 0
-152 -249 0
-153 -247 0
-153 248 0
-153 -249 0
-154 247 0
-154 248 0
-154 -249 0
-155 -247 0
-155 -248 0
-155 249 0
-151 121 0
-151 156 0
-152 122 0
-152 157 0
-153 123 0
-153 158 0
-154 124 0
-154 159 0
-155 125 0
-155 160 0
-156 -250 0
-156 -251 0
-156 -252 0
-157 250 0
-157 -251 0
-157 -252 0
-158 -250 0
-158 251 0
-158 -252 0
-159 250 0
-159 251 0
-159 -252 0
-160 -250 0
-160 -251 0
-160 252 0
-156 126 161 0
-156 126 151 0
-156 161 151 0
-157 127 162 0
-157 127 152 0
-157 162 152 0
-158 128 163 0
-158 128 153 0
-158 163 153 0
-159 129 164 0
-159 129 154 0
-159 164 154 0
-160 130 165 0
-160 130 155 0
-160 165 155 0
-156 -126 -161 -151 0
-157 -127 -162 -152 0
-158 -128 -163 -153 0
-159 -129 -164 -154 0
-160 -130 -165 -155 0
161 0
-162 0
-163 0
-164 0
-165 0
131 166 156 0
-131 -166 0
-131 -156 0
-166 -156 0
167 0
-166 0
-168 0
-169 0
-170 0
137 172 162 0
-137 -172 0
-137 -162 0
-172 -162 0
-171 -253 0
-171 -254 0
-171 -255 0
-172 253 0
-172 -254 0
-172 -255 0
-173 -253 0
-173 254 0
-173 -255 0
-174 253 0
-174 254 0
-174 -255 0
-175 -253 0
-175 -254 0
-175 255 0
-171 141 176 0
-171 141 166 0
-171 176 166 0
-172 142 177 0
-172 142 167 0
-172 177 167 0
-173 143 178 0
-173 143 168 0
-173 178 168 0
-174 144 179 0
-174 144 169 0
-174 179 169 0
-175 145 180 0
-175 145 170 0
-175 180 170 0
-171 -141 -176 -166 0
-172 -142 -177 -167 0
-173 -143 -178 -168 0
-174 -144 -179 -169 0
-175 -145 -180 -170 0
-176 -256 0
-176 -257 0
-176 -258 0
-177 256 0
-177 -257 0
-177 -258 0
-178 -256 0
-178 257 0
-178 -258 0
-179 256 0
-179 257 0
-179 -258 0
-180 -256 0
-180 -257 0
-180 258 0
-176 146 0
-176 171 0
-177 147 0
-177 172 0
-178 148 0
-178 173 0
-179 149 0
-179 174 0
-180 150 0
-180 175 0
31 36 41 46 56 0
61 66 76 81 86 0
91 96 106 111 116 0
121 126 146 0
36 66 96 126 156 0
32 37 42 47 57 0
62 67 77 82 87 0
92 97 107 112 117 0
122 127 147 0
12 42 0
63 68 78 83 88 0
93 98 108 113 118 0
18 48 78 108 0
94 99 109 114 119 0
19 49 79 109 0